(set-logic HORN)
(declare-fun inv ((_ BitVec 64) (_ BitVec 64) ) Bool)
(assert (forall ((x (_ BitVec 64)) (y (_ BitVec 64))) 
       (=> ( and ( bvsle x (_ bv5 64) ) ( bvsge x (_ bv4 64) ) ( bvsle y (_ bv5 64) ) ( bvsge y (_ bv4 64) ) ) (inv x y))))
(assert (forall ((x (_ BitVec 64)) (y (_ BitVec 64)) (x! (_ BitVec 64)) (y! (_ BitVec 64))) 
       (=> (and (inv x y) ( or ( and ( = x! ( bvsub x (_ bv1 64) ) ) ( = y! y ) ( bvsge x (_ bv0 64) ) ( bvsge y (_ bv0 64) ) ) ( and ( = x! x ) ( = y! ( bvsub y (_ bv1 64) ) ) ( bvslt x (_ bv0 64) ) ( bvsge y (_ bv0 64) ) ) ( and ( = x! ( bvadd x (_ bv1 64) ) ) ( = y! ( bvsub y (_ bv1 64) ) ) ( bvslt y (_ bv0 64) ) ) )) (inv x! y!))))
(assert (forall ((x (_ BitVec 64)) (y (_ BitVec 64))) 
       (=> (inv x y) ( and ( bvsle y (_ bv5 64) ) ))))
(check-sat)
